p cnf 7230 17
7003 -7050 0
6081 -7052 0
-5803 -6081 -7001 7053 0
-5339 -6197 -7003 7049 0
6081 -7054 0
-5613 -6081 -7003 7051 0
5803 -7054 0
5339 -7050 0
7003 -7052 0
-7049 7050 0
-7053 7054 0
-7051 7052 0
7001 -7054 0
5613 -7052 0
6197 -7050 0
7005 -7056 0
4348 -7056 0
